NAME: clu_20_3
TYPE: TSP
DIMENSION: 20
EDGE_WEIGHT_TYPE: EUC_2D
NODE_COORD_SECTION
1 50 37
2 23 21
3 54 13
4 28 3
5 44 -2
6 48 31
7 22 63
8 30 38
9 47 28
10 30 14
11 46 12
12 58 45
13 45 13
14 70 56
15 30 21
16 43 35
17 50 23
18 33 40
19 41 32
20 22 7
EOF
